!- Windows Line endings 

VERSION,
    9.4;                      !- Version Identifier

SIMULATIONCONTROL,
    No,                       !- Do Zone Sizing Calculation
    No,                       !- Do System Sizing Calculation
    No,                       !- Do Plant Sizing Calculation
    No,                       !- Run Simulation for Sizing Periods
    Yes,                      !- Run Simulation for Weather File Run Periods
    No,                       !- Do HVAC Sizing Simulation for Sizing Periods
    1;                        !- Maximum Number of HVAC Sizing Simulation Passes

BUILDING,
    MiniCompareBuilding,      !- Name
    0,                        !- North Axis
    City,                     !- Terrain
    0.04,                     !- Loads Convergence Tolerance Value
    0.4,                      !- Temperature Convergence Tolerance Value
    FullExterior,             !- Solar Distribution
    25,                       !- Maximum Number of Warmup Days
    6;                        !- Minimum Number of Warmup Days

TIMESTEP,
    4;                        !- Number of Timesteps per Hour

RUNPERIOD,
    rp,                       !- Name
    7,                        !- Begin Month
    1,                        !- Begin Day of Month
    ,                         !- Begin Year
    7,                        !- End Month
    5,                        !- End Day of Month
    ,                         !- End Year
    ,                         !- Day of Week for Start Day
    Yes,                      !- Use Weather File Holidays and Special Days
    Yes,                      !- Use Weather File Daylight Saving Period
    No,                       !- Apply Weekend Holiday Rule
    Yes,                      !- Use Weather File Rain Indicators
    Yes,                      !- Use Weather File Snow Indicators
    No;                       !- Treat Weather as Actual

MATERIAL,
    ConcreteBlock,            !- Name
    Rough,                    !- Roughness
    0.2,                      !- Thickness
    1,                        !- Conductivity
    1400,                     !- Density
    1000,                     !- Specific Heat
    0.9,                      !- Thermal Absorptance
    0.7,                      !- Solar Absorptance
    0.7;                      !- Visible Absorptance

WINDOWMATERIAL:SIMPLEGLAZINGSYSTEM,
    SimpleGlazing,            !- Name
    2,                        !- UFactor
    0.6;                      !- Solar Heat Gain Coefficient

CONSTRUCTION,
    OpaqueConstruction,       !- Name
    ConcreteBlock;            !- Outside Layer

CONSTRUCTION,
    WindowConstruction,       !- Name
    SimpleGlazing;            !- Outside Layer

GLOBALGEOMETRYRULES,
    LowerLeftCorner,          !- Starting Vertex Position
    Counterclockwise,         !- Vertex Entry Direction
    World,                    !- Coordinate System
    Relative,                 !- Daylighting Reference Point Coordinate System
    Relative;                 !- Rectangular Surface Coordinate System

ZONE,
    Zone1,                    !- Name
    0,                        !- Direction of Relative North
    0,                        !- X Origin
    0,                        !- Y Origin
    0,                        !- Z Origin
    1,                        !- Type
    1,                        !- Multiplier
    autocalculate,            !- Ceiling Height
    autocalculate,            !- Volume
    autocalculate,            !- Floor Area
    ,                         !- Zone Inside Convection Algorithm
    ,                         !- Zone Outside Convection Algorithm
    Yes;                      !- Part of Total Floor Area

BUILDINGSURFACE:DETAILED,
    Wall1,                    !- Name
    Wall,                     !- Surface Type
    OpaqueConstruction,       !- Construction Name
    Zone1,                    !- Zone Name
    Outdoors,                 !- Outside Boundary Condition
    ,                         !- Outside Boundary Condition Object
    SunExposed,               !- Sun Exposure
    WindExposed,              !- Wind Exposure
    autocalculate,            !- View Factor to Ground
    4,                        !- Number of Vertices
    0,                        !- Vertex 1 Xcoordinate
    0,                        !- Vertex 1 Ycoordinate
    0,                        !- Vertex 1 Zcoordinate
    5,                        !- Vertex 2 Xcoordinate
    0,                        !- Vertex 2 Ycoordinate
    0,                        !- Vertex 2 Zcoordinate
    5,                        !- Vertex 3 Xcoordinate
    0,                        !- Vertex 3 Ycoordinate
    3,                        !- Vertex 3 Zcoordinate
    0,                        !- Vertex 4 Xcoordinate
    0,                        !- Vertex 4 Ycoordinate
    3;                        !- Vertex 4 Zcoordinate

BUILDINGSURFACE:DETAILED,
    Floor1,                   !- Name
    Floor,                    !- Surface Type
    OpaqueConstruction,       !- Construction Name
    Zone1,                    !- Zone Name
    Ground,                   !- Outside Boundary Condition
    ,                         !- Outside Boundary Condition Object
    NoSun,                    !- Sun Exposure
    NoWind,                   !- Wind Exposure
    autocalculate,            !- View Factor to Ground
    4,                        !- Number of Vertices
    0,                        !- Vertex 1 Xcoordinate
    0,                        !- Vertex 1 Ycoordinate
    0,                        !- Vertex 1 Zcoordinate
    0,                        !- Vertex 2 Xcoordinate
    5,                        !- Vertex 2 Ycoordinate
    0,                        !- Vertex 2 Zcoordinate
    5,                        !- Vertex 3 Xcoordinate
    5,                        !- Vertex 3 Ycoordinate
    0,                        !- Vertex 3 Zcoordinate
    5,                        !- Vertex 4 Xcoordinate
    0,                        !- Vertex 4 Ycoordinate
    0;                        !- Vertex 4 Zcoordinate

BUILDINGSURFACE:DETAILED,
    Roof1,                    !- Name
    Roof,                     !- Surface Type
    OpaqueConstruction,       !- Construction Name
    Zone1,                    !- Zone Name
    Outdoors,                 !- Outside Boundary Condition
    ,                         !- Outside Boundary Condition Object
    SunExposed,               !- Sun Exposure
    WindExposed,              !- Wind Exposure
    autocalculate,            !- View Factor to Ground
    4,                        !- Number of Vertices
    0,                        !- Vertex 1 Xcoordinate
    5,                        !- Vertex 1 Ycoordinate
    3,                        !- Vertex 1 Zcoordinate
    0,                        !- Vertex 2 Xcoordinate
    0,                        !- Vertex 2 Ycoordinate
    3,                        !- Vertex 2 Zcoordinate
    5,                        !- Vertex 3 Xcoordinate
    0,                        !- Vertex 3 Ycoordinate
    3,                        !- Vertex 3 Zcoordinate
    5,                        !- Vertex 4 Xcoordinate
    5,                        !- Vertex 4 Ycoordinate
    3;                        !- Vertex 4 Zcoordinate

BUILDINGSURFACE:DETAILED,
    Wall2,                    !- Name
    Wall,                     !- Surface Type
    OpaqueConstruction,       !- Construction Name
    Zone1,                    !- Zone Name
    Outdoors,                 !- Outside Boundary Condition
    ,                         !- Outside Boundary Condition Object
    SunExposed,               !- Sun Exposure
    WindExposed,              !- Wind Exposure
    autocalculate,            !- View Factor to Ground
    4,                        !- Number of Vertices
    5,                        !- Vertex 1 Xcoordinate
    5,                        !- Vertex 1 Ycoordinate
    0,                        !- Vertex 1 Zcoordinate
    0,                        !- Vertex 2 Xcoordinate
    5,                        !- Vertex 2 Ycoordinate
    0,                        !- Vertex 2 Zcoordinate
    0,                        !- Vertex 3 Xcoordinate
    5,                        !- Vertex 3 Ycoordinate
    3,                        !- Vertex 3 Zcoordinate
    5,                        !- Vertex 4 Xcoordinate
    5,                        !- Vertex 4 Ycoordinate
    3;                        !- Vertex 4 Zcoordinate

BUILDINGSURFACE:DETAILED,
    Wall3,                    !- Name
    Wall,                     !- Surface Type
    OpaqueConstruction,       !- Construction Name
    Zone1,                    !- Zone Name
    Outdoors,                 !- Outside Boundary Condition
    ,                         !- Outside Boundary Condition Object
    SunExposed,               !- Sun Exposure
    WindExposed,              !- Wind Exposure
    autocalculate,            !- View Factor to Ground
    4,                        !- Number of Vertices
    0,                        !- Vertex 1 Xcoordinate
    5,                        !- Vertex 1 Ycoordinate
    0,                        !- Vertex 1 Zcoordinate
    0,                        !- Vertex 2 Xcoordinate
    0,                        !- Vertex 2 Ycoordinate
    0,                        !- Vertex 2 Zcoordinate
    0,                        !- Vertex 3 Xcoordinate
    0,                        !- Vertex 3 Ycoordinate
    3,                        !- Vertex 3 Zcoordinate
    0,                        !- Vertex 4 Xcoordinate
    5,                        !- Vertex 4 Ycoordinate
    3;                        !- Vertex 4 Zcoordinate

BUILDINGSURFACE:DETAILED,
    Wall4,                    !- Name
    Wall,                     !- Surface Type
    OpaqueConstruction,       !- Construction Name
    Zone1,                    !- Zone Name
    Outdoors,                 !- Outside Boundary Condition
    ,                         !- Outside Boundary Condition Object
    SunExposed,               !- Sun Exposure
    WindExposed,              !- Wind Exposure
    autocalculate,            !- View Factor to Ground
    4,                        !- Number of Vertices
    5,                        !- Vertex 1 Xcoordinate
    0,                        !- Vertex 1 Ycoordinate
    0,                        !- Vertex 1 Zcoordinate
    5,                        !- Vertex 2 Xcoordinate
    5,                        !- Vertex 2 Ycoordinate
    0,                        !- Vertex 2 Zcoordinate
    5,                        !- Vertex 3 Xcoordinate
    5,                        !- Vertex 3 Ycoordinate
    3,                        !- Vertex 3 Zcoordinate
    5,                        !- Vertex 4 Xcoordinate
    0,                        !- Vertex 4 Ycoordinate
    3;                        !- Vertex 4 Zcoordinate

FENESTRATIONSURFACE:DETAILED,
    Window1,                  !- Name
    Window,                   !- Surface Type
    WindowConstruction,       !- Construction Name
    Wall1,                    !- Building Surface Name
    ,                         !- Outside Boundary Condition Object
    autocalculate,            !- View Factor to Ground
    ,                         !- Frame and Divider Name
    1,                        !- Multiplier
    4,                        !- Number of Vertices
    1,                        !- Vertex 1 Xcoordinate
    0,                        !- Vertex 1 Ycoordinate
    1,                        !- Vertex 1 Zcoordinate
    4,                        !- Vertex 2 Xcoordinate
    0,                        !- Vertex 2 Ycoordinate
    1,                        !- Vertex 2 Zcoordinate
    4,                        !- Vertex 3 Xcoordinate
    0,                        !- Vertex 3 Ycoordinate
    2,                        !- Vertex 3 Zcoordinate
    1,                        !- Vertex 4 Xcoordinate
    0,                        !- Vertex 4 Ycoordinate
    2;                        !- Vertex 4 Zcoordinate

ZONEHVAC:IDEALLOADSAIRSYSTEM,
    Zone1 Ideal Loads,        !- Name
    ,                         !- Availability Schedule Name
    Zone1 Inlet,              !- Zone Supply Air Node Name
    ,                         !- Zone Exhaust Air Node Name
    ,                         !- System Inlet Air Node Name
    50,                       !- Maximum Heating Supply Air Temperature
    13,                       !- Minimum Cooling Supply Air Temperature
    0.0156,                   !- Maximum Heating Supply Air Humidity Ratio
    0.0077,                   !- Minimum Cooling Supply Air Humidity Ratio
    NoLimit,                  !- Heating Limit
    ,                         !- Maximum Heating Air Flow Rate
    ,                         !- Maximum Sensible Heating Capacity
    NoLimit,                  !- Cooling Limit
    ,                         !- Maximum Cooling Air Flow Rate
    ,                         !- Maximum Total Cooling Capacity
    ,                         !- Heating Availability Schedule Name
    ,                         !- Cooling Availability Schedule Name
    ConstantSensibleHeatRatio,    !- Dehumidification Control Type
    0.7,                      !- Cooling Sensible Heat Ratio
    None,                     !- Humidification Control Type
    ,                         !- Design Specification Outdoor Air Object Name
    ,                         !- Outdoor Air Inlet Node Name
    None,                     !- Demand Controlled Ventilation Type
    NoEconomizer,             !- Outdoor Air Economizer Type
    None,                     !- Heat Recovery Type
    0.7,                      !- Sensible Heat Recovery Effectiveness
    0.65;                     !- Latent Heat Recovery Effectiveness

ZONEHVAC:EQUIPMENTLIST,
    Zone1 Equipment,          !- Name
    SequentialLoad,           !- Load Distribution Scheme
    ZoneHVAC:IdealLoadsAirSystem,    !- Zone Equipment 1 Object Type
    Zone1 Ideal Loads,        !- Zone Equipment 1 Name
    1,                        !- Zone Equipment 1 Cooling Sequence
    1;                        !- Zone Equipment 1 Heating or NoLoad Sequence

ZONEHVAC:EQUIPMENTCONNECTIONS,
    Zone1,                    !- Zone Name
    Zone1 Equipment,          !- Zone Conditioning Equipment List Name
    Zone1 Inlet,              !- Zone Air Inlet Node or NodeList Name
    ,                         !- Zone Air Exhaust Node or NodeList Name
    Zone1 Air Node,           !- Zone Air Node Name
    Zone1 Return;             !- Zone Return Air Node or NodeList Name